nK = 2146;
nT = 8;
nI = 21;
L = 35;
TT = 483;
np = 1;
nc = 3;
b = [54, 58, 25, 44, 21, 23, 28, 55, 61, 38, 36, 44, 67, 30, 64, 48, 52, 20, 52, 40, 56];
d = [148, 116, 63, 127, 89, 106, 86, 86, 118, 82, 60, 106, 123, 51, 147, 114, 149, 104, 83, 113, 149];
m = [1.1, 2.3, 2, 2, 2.1, 1, 1.7, 1.2, 1.7, 2.3, 2.1, 1, 2.5, 2.3, 2.2, 1.6, 2.4, 1.1, 1.6, 2, 1.5];
pt = [0.29, 0.26, 0.3, 0.31, 0.32, 0.33, 0.22, 0.32];
st = [12.76, 14.3, 17.7, 17.36, 18.56, 13.53, 10.78, 16.64];
arc = {<1, 0, 1, 1, 0, 0, 0, [1, 1, 1, 1, 1, 1, 1, 1]>, <2, 1, 2, 1, 0, 0, 0, [1, 1, 1, 1, 1, 1, 1, 1]>, <3, 2, 3, 1, 0, 0, 0, [1, 1, 1, 1, 1, 1, 1, 1]>, <4, 3, 4, 1, 0, 0, 0, [1, 1, 1, 1, 1, 1, 1, 1]>, <5, 4, 5, 1, 0, 0, 0, [1, 1, 1, 1, 1, 1, 1, 1]>, <6, 5, 6, 1, 0, 0, 0, [1, 1, 1, 1, 1, 1, 1, 1]>, <7, 6, 7, 1, 0, 0, 0, [1, 1, 1, 1, 1, 1, 1, 1]>, <8, 7, 8, 1, 0, 0, 0, [1, 1, 1, 1, 1, 1, 1, 1]>, <9, 8, 9, 1, 0, 0, 0, [1, 1, 1, 1, 1, 1, 1, 1]>, <10, 9, 10, 1, 0, 0, 0, [1, 1, 1, 1, 1, 1, 1, 1]>, <11, 10, 11, 1, 0, 0, 0, [1, 1, 1, 1, 1, 1, 1, 1]>, <12, 11, 12, 1, 0, 0, 0, [1, 1, 1, 1, 1, 1, 1, 1]>, <13, 12, 13, 1, 0, 0, 0, [1, 1, 1, 1, 1, 1, 1, 1]>, <14, 13, 14, 1, 0, 0, 0, [1, 1, 1, 1, 1, 1, 1, 1]>, <15, 14, 15, 1, 0, 0, 0, [1, 1, 1, 1, 1, 1, 1, 1]>, <16, 15, 16, 1, 0, 0, 0, [1, 1, 1, 1, 1, 1, 1, 1]>, <17, 16, 17, 1, 0, 0, 0, [1, 1, 1, 1, 1, 1, 1, 1]>, <18, 17, 18, 1, 0, 0, 0, [1, 1, 1, 1, 1, 1, 1, 1]>, <19, 18, 19, 1, 0, 0, 0, [1, 1, 1, 1, 1, 1, 1, 1]>, <20, 19, 20, 1, 0, 0, 0, [1, 1, 1, 1, 1, 1, 1, 1]>, <21, 20, 21, 1, 0, 0, 0, [1, 1, 1, 1, 1, 1, 1, 1]>, <22, 21, 22, 1, 0, 0, 0, [1, 1, 1, 1, 1, 1, 1, 1]>, <23, 22, 23, 1, 0, 0, 0, [1, 1, 1, 1, 1, 1, 1, 1]>, <24, 23, 24, 1, 0, 0, 0, [1, 1, 1, 1, 1, 1, 1, 1]>, <25, 24, 25, 1, 0, 0, 0, [1, 1, 1, 1, 1, 1, 1, 1]>, <26, 25, 26, 1, 0, 0, 0, [1, 1, 1, 1, 1, 1, 1, 1]>, <27, 26, 27, 1, 0, 0, 0, [1, 1, 1, 1, 1, 1, 1, 1]>, <28, 27, 28, 1, 0, 0, 0, [1, 1, 1, 1, 1, 1, 1, 1]>, <29, 28, 29, 1, 0, 0, 0, [1, 1, 1, 1, 1, 1, 1, 1]>, <30, 29, 30, 1, 0, 0, 0, [1, 1, 1, 1, 1, 1, 1, 1]>, <31, 30, 31, 1, 0, 0, 0, [1, 1, 1, 1, 1, 1, 1, 1]>, <32, 31, 32, 1, 0, 0, 0, [1, 1, 1, 1, 1, 1, 1, 1]>, <33, 32, 33, 1, 0, 0, 0, [1, 1, 1, 1, 1, 1, 1, 1]>, <34, 33, 34, 1, 0, 0, 0, [1, 1, 1, 1, 1, 1, 1, 1]>, <35, 34, 35, 1, 0, 0, 0, [1, 1, 1, 1, 1, 1, 1, 1]>, <36, 2, 17, 15, 1, 1, 0, [0, 1, 1, 1, 1, 0, 0, 0]>, <37, 3, 18, 15, 1, 1, 0, [0, 1, 1, 1, 1, 0, 0, 0]>, <38, 4, 19, 15, 1, 1, 0, [0, 1, 1, 1, 1, 0, 0, 0]>, <39, 5, 20, 15, 1, 1, 0, [0, 1, 1, 1, 1, 0, 0, 0]>, <40, 6, 21, 15, 1, 1, 0, [0, 1, 1, 1, 1, 0, 0, 0]>, <41, 11, 26, 15, 1, 1, 0, [0, 1, 1, 1, 1, 0, 0, 0]>, <42, 12, 27, 15, 1, 1, 0, [0, 1, 1, 1, 1, 0, 0, 0]>, <43, 13, 28, 15, 1, 1, 0, [0, 1, 1, 1, 1, 0, 0, 0]>, <44, 14, 29, 15, 1, 1, 0, [0, 1, 1, 1, 1, 0, 0, 0]>, <45, 15, 30, 15, 1, 1, 0, [0, 1, 1, 1, 1, 0, 0, 0]>, <46, 16, 31, 15, 1, 1, 0, [0, 1, 1, 1, 1, 0, 0, 0]>, <47, 17, 32, 15, 1, 1, 0, [0, 1, 1, 1, 1, 0, 0, 0]>, <48, 18, 33, 15, 1, 1, 0, [0, 1, 1, 1, 1, 0, 0, 0]>, <49, 19, 34, 15, 1, 1, 0, [0, 1, 1, 1, 1, 0, 0, 0]>, <50, 20, 35, 15, 1, 1, 0, [0, 1, 1, 1, 1, 0, 0, 0]>, <51, 2, 17, 15, 2, 0, 1, [0, 0, 0, 1, 1, 1, 1, 0]>, <52, 3, 18, 15, 2, 0, 1, [0, 0, 0, 1, 1, 1, 1, 0]>, <53, 4, 19, 15, 2, 0, 1, [0, 0, 0, 1, 1, 1, 1, 0]>, <54, 5, 20, 15, 2, 0, 1, [0, 0, 0, 1, 1, 1, 1, 0]>, <55, 6, 21, 15, 2, 0, 1, [0, 0, 0, 1, 1, 1, 1, 0]>, <56, 11, 26, 15, 2, 0, 1, [0, 0, 0, 1, 1, 1, 1, 0]>, <57, 12, 27, 15, 2, 0, 1, [0, 0, 0, 1, 1, 1, 1, 0]>, <58, 13, 28, 15, 2, 0, 1, [0, 0, 0, 1, 1, 1, 1, 0]>, <59, 14, 29, 15, 2, 0, 1, [0, 0, 0, 1, 1, 1, 1, 0]>, <60, 15, 30, 15, 2, 0, 1, [0, 0, 0, 1, 1, 1, 1, 0]>, <61, 16, 31, 15, 2, 0, 1, [0, 0, 0, 1, 1, 1, 1, 0]>, <62, 17, 32, 15, 2, 0, 1, [0, 0, 0, 1, 1, 1, 1, 0]>, <63, 18, 33, 15, 2, 0, 1, [0, 0, 0, 1, 1, 1, 1, 0]>, <64, 19, 34, 15, 2, 0, 1, [0, 0, 0, 1, 1, 1, 1, 0]>, <65, 20, 35, 15, 2, 0, 1, [0, 0, 0, 1, 1, 1, 1, 0]>, <66, 3, 17, 14, 3, 0, 0, [0, 0, 0, 0, 1, 1, 1, 1]>, <67, 4, 18, 14, 3, 0, 0, [0, 0, 0, 0, 1, 1, 1, 1]>, <68, 5, 19, 14, 3, 0, 0, [0, 0, 0, 0, 1, 1, 1, 1]>, <69, 6, 20, 14, 3, 0, 0, [0, 0, 0, 0, 1, 1, 1, 1]>, <70, 12, 26, 14, 3, 0, 0, [0, 0, 0, 0, 1, 1, 1, 1]>, <71, 13, 27, 14, 3, 0, 0, [0, 0, 0, 0, 1, 1, 1, 1]>, <72, 14, 28, 14, 3, 0, 0, [0, 0, 0, 0, 1, 1, 1, 1]>, <73, 15, 29, 14, 3, 0, 0, [0, 0, 0, 0, 1, 1, 1, 1]>, <74, 17, 31, 14, 3, 0, 0, [0, 0, 0, 0, 1, 1, 1, 1]>, <75, 18, 32, 14, 3, 0, 0, [0, 0, 0, 0, 1, 1, 1, 1]>, <76, 19, 33, 14, 3, 0, 0, [0, 0, 0, 0, 1, 1, 1, 1]>, <77, 20, 34, 14, 3, 0, 0, [0, 0, 0, 0, 1, 1, 1, 1]>, <78, 21, 35, 14, 3, 0, 0, [0, 0, 0, 0, 1, 1, 1, 1]>, <79, 1, 17, 16, 4, 0, 1, [1, 0, 0, 0, 0, 1, 1, 1]>, <80, 2, 18, 16, 4, 0, 1, [1, 0, 0, 0, 0, 1, 1, 1]>, <81, 3, 19, 16, 4, 0, 1, [1, 0, 0, 0, 0, 1, 1, 1]>, <82, 4, 20, 16, 4, 0, 1, [1, 0, 0, 0, 0, 1, 1, 1]>, <83, 5, 21, 16, 4, 0, 1, [1, 0, 0, 0, 0, 1, 1, 1]>, <84, 6, 22, 16, 4, 0, 1, [1, 0, 0, 0, 0, 1, 1, 1]>, <85, 10, 26, 16, 4, 0, 1, [1, 0, 0, 0, 0, 1, 1, 1]>, <86, 11, 27, 16, 4, 0, 1, [1, 0, 0, 0, 0, 1, 1, 1]>, <87, 12, 28, 16, 4, 0, 1, [1, 0, 0, 0, 0, 1, 1, 1]>, <88, 13, 29, 16, 4, 0, 1, [1, 0, 0, 0, 0, 1, 1, 1]>, <89, 14, 30, 16, 4, 0, 1, [1, 0, 0, 0, 0, 1, 1, 1]>, <90, 15, 31, 16, 4, 0, 1, [1, 0, 0, 0, 0, 1, 1, 1]>, <91, 16, 32, 16, 4, 0, 1, [1, 0, 0, 0, 0, 1, 1, 1]>, <92, 17, 33, 16, 4, 0, 1, [1, 0, 0, 0, 0, 1, 1, 1]>, <93, 18, 34, 16, 4, 0, 1, [1, 0, 0, 0, 0, 1, 1, 1]>, <94, 19, 35, 16, 4, 0, 1, [1, 0, 0, 0, 0, 1, 1, 1]>, <95, 3, 17, 14, 5, 1, 0, [1, 1, 1, 0, 0, 0, 0, 1]>, <96, 4, 18, 14, 5, 1, 0, [1, 1, 1, 0, 0, 0, 0, 1]>, <97, 5, 19, 14, 5, 1, 0, [1, 1, 1, 0, 0, 0, 0, 1]>, <98, 6, 20, 14, 5, 1, 0, [1, 1, 1, 0, 0, 0, 0, 1]>, <99, 12, 26, 14, 5, 1, 0, [1, 1, 1, 0, 0, 0, 0, 1]>, <100, 13, 27, 14, 5, 1, 0, [1, 1, 1, 0, 0, 0, 0, 1]>, <101, 14, 28, 14, 5, 1, 0, [1, 1, 1, 0, 0, 0, 0, 1]>, <102, 15, 29, 14, 5, 1, 0, [1, 1, 1, 0, 0, 0, 0, 1]>, <103, 17, 31, 14, 5, 1, 0, [1, 1, 1, 0, 0, 0, 0, 1]>, <104, 18, 32, 14, 5, 1, 0, [1, 1, 1, 0, 0, 0, 0, 1]>, <105, 19, 33, 14, 5, 1, 0, [1, 1, 1, 0, 0, 0, 0, 1]>, <106, 20, 34, 14, 5, 1, 0, [1, 1, 1, 0, 0, 0, 0, 1]>, <107, 21, 35, 14, 5, 1, 0, [1, 1, 1, 0, 0, 0, 0, 1]>, <108, 3, 17, 14, 6, 0, 0, [1, 1, 0, 0, 0, 0, 1, 1]>, <109, 4, 18, 14, 6, 0, 0, [1, 1, 0, 0, 0, 0, 1, 1]>, <110, 5, 19, 14, 6, 0, 0, [1, 1, 0, 0, 0, 0, 1, 1]>, <111, 6, 20, 14, 6, 0, 0, [1, 1, 0, 0, 0, 0, 1, 1]>, <112, 12, 26, 14, 6, 0, 0, [1, 1, 0, 0, 0, 0, 1, 1]>, <113, 13, 27, 14, 6, 0, 0, [1, 1, 0, 0, 0, 0, 1, 1]>, <114, 14, 28, 14, 6, 0, 0, [1, 1, 0, 0, 0, 0, 1, 1]>, <115, 15, 29, 14, 6, 0, 0, [1, 1, 0, 0, 0, 0, 1, 1]>, <116, 17, 31, 14, 6, 0, 0, [1, 1, 0, 0, 0, 0, 1, 1]>, <117, 18, 32, 14, 6, 0, 0, [1, 1, 0, 0, 0, 0, 1, 1]>, <118, 19, 33, 14, 6, 0, 0, [1, 1, 0, 0, 0, 0, 1, 1]>, <119, 20, 34, 14, 6, 0, 0, [1, 1, 0, 0, 0, 0, 1, 1]>, <120, 21, 35, 14, 6, 0, 0, [1, 1, 0, 0, 0, 0, 1, 1]>, <121, 3, 17, 14, 7, 0, 0, [1, 0, 0, 0, 0, 1, 1, 1]>, <122, 4, 18, 14, 7, 0, 0, [1, 0, 0, 0, 0, 1, 1, 1]>, <123, 5, 19, 14, 7, 0, 0, [1, 0, 0, 0, 0, 1, 1, 1]>, <124, 6, 20, 14, 7, 0, 0, [1, 0, 0, 0, 0, 1, 1, 1]>, <125, 12, 26, 14, 7, 0, 0, [1, 0, 0, 0, 0, 1, 1, 1]>, <126, 13, 27, 14, 7, 0, 0, [1, 0, 0, 0, 0, 1, 1, 1]>, <127, 14, 28, 14, 7, 0, 0, [1, 0, 0, 0, 0, 1, 1, 1]>, <128, 15, 29, 14, 7, 0, 0, [1, 0, 0, 0, 0, 1, 1, 1]>, <129, 17, 31, 14, 7, 0, 0, [1, 0, 0, 0, 0, 1, 1, 1]>, <130, 18, 32, 14, 7, 0, 0, [1, 0, 0, 0, 0, 1, 1, 1]>, <131, 19, 33, 14, 7, 0, 0, [1, 0, 0, 0, 0, 1, 1, 1]>, <132, 20, 34, 14, 7, 0, 0, [1, 0, 0, 0, 0, 1, 1, 1]>, <133, 21, 35, 14, 7, 0, 0, [1, 0, 0, 0, 0, 1, 1, 1]>, <134, 3, 17, 14, 8, 0, 1, [1, 0, 0, 0, 0, 1, 1, 1]>, <135, 4, 18, 14, 8, 0, 1, [1, 0, 0, 0, 0, 1, 1, 1]>, <136, 5, 19, 14, 8, 0, 1, [1, 0, 0, 0, 0, 1, 1, 1]>, <137, 6, 20, 14, 8, 0, 1, [1, 0, 0, 0, 0, 1, 1, 1]>, <138, 12, 26, 14, 8, 0, 1, [1, 0, 0, 0, 0, 1, 1, 1]>, <139, 13, 27, 14, 8, 0, 1, [1, 0, 0, 0, 0, 1, 1, 1]>, <140, 14, 28, 14, 8, 0, 1, [1, 0, 0, 0, 0, 1, 1, 1]>, <141, 15, 29, 14, 8, 0, 1, [1, 0, 0, 0, 0, 1, 1, 1]>, <142, 17, 31, 14, 8, 0, 1, [1, 0, 0, 0, 0, 1, 1, 1]>, <143, 18, 32, 14, 8, 0, 1, [1, 0, 0, 0, 0, 1, 1, 1]>, <144, 19, 33, 14, 8, 0, 1, [1, 0, 0, 0, 0, 1, 1, 1]>, <145, 20, 34, 14, 8, 0, 1, [1, 0, 0, 0, 0, 1, 1, 1]>, <146, 21, 35, 14, 8, 0, 1, [1, 0, 0, 0, 0, 1, 1, 1]>, <147, 0, 18, 18, 9, 0, 1, [0, 0, 0, 0, 1, 1, 1, 1]>, <148, 1, 19, 18, 9, 0, 1, [0, 0, 0, 0, 1, 1, 1, 1]>, <149, 2, 20, 18, 9, 0, 1, [0, 0, 0, 0, 1, 1, 1, 1]>, <150, 3, 21, 18, 9, 0, 1, [0, 0, 0, 0, 1, 1, 1, 1]>, <151, 4, 22, 18, 9, 0, 1, [0, 0, 0, 0, 1, 1, 1, 1]>, <152, 5, 23, 18, 9, 0, 1, [0, 0, 0, 0, 1, 1, 1, 1]>, <153, 6, 24, 18, 9, 0, 1, [0, 0, 0, 0, 1, 1, 1, 1]>, <154, 8, 26, 18, 9, 0, 1, [0, 0, 0, 0, 1, 1, 1, 1]>, <155, 9, 27, 18, 9, 0, 1, [0, 0, 0, 0, 1, 1, 1, 1]>, <156, 10, 28, 18, 9, 0, 1, [0, 0, 0, 0, 1, 1, 1, 1]>, <157, 11, 29, 18, 9, 0, 1, [0, 0, 0, 0, 1, 1, 1, 1]>, <158, 12, 30, 18, 9, 0, 1, [0, 0, 0, 0, 1, 1, 1, 1]>, <159, 13, 31, 18, 9, 0, 1, [0, 0, 0, 0, 1, 1, 1, 1]>, <160, 14, 32, 18, 9, 0, 1, [0, 0, 0, 0, 1, 1, 1, 1]>, <161, 15, 33, 18, 9, 0, 1, [0, 0, 0, 0, 1, 1, 1, 1]>, <162, 16, 34, 18, 9, 0, 1, [0, 0, 0, 0, 1, 1, 1, 1]>, <163, 17, 35, 18, 9, 0, 1, [0, 0, 0, 0, 1, 1, 1, 1]>, <164, 0, 18, 18, 10, 0, 0, [0, 0, 0, 0, 1, 1, 1, 1]>, <165, 1, 19, 18, 10, 0, 0, [0, 0, 0, 0, 1, 1, 1, 1]>, <166, 2, 20, 18, 10, 0, 0, [0, 0, 0, 0, 1, 1, 1, 1]>, <167, 3, 21, 18, 10, 0, 0, [0, 0, 0, 0, 1, 1, 1, 1]>, <168, 4, 22, 18, 10, 0, 0, [0, 0, 0, 0, 1, 1, 1, 1]>, <169, 5, 23, 18, 10, 0, 0, [0, 0, 0, 0, 1, 1, 1, 1]>, <170, 6, 24, 18, 10, 0, 0, [0, 0, 0, 0, 1, 1, 1, 1]>, <171, 8, 26, 18, 10, 0, 0, [0, 0, 0, 0, 1, 1, 1, 1]>, <172, 9, 27, 18, 10, 0, 0, [0, 0, 0, 0, 1, 1, 1, 1]>, <173, 10, 28, 18, 10, 0, 0, [0, 0, 0, 0, 1, 1, 1, 1]>, <174, 11, 29, 18, 10, 0, 0, [0, 0, 0, 0, 1, 1, 1, 1]>, <175, 12, 30, 18, 10, 0, 0, [0, 0, 0, 0, 1, 1, 1, 1]>, <176, 13, 31, 18, 10, 0, 0, [0, 0, 0, 0, 1, 1, 1, 1]>, <177, 14, 32, 18, 10, 0, 0, [0, 0, 0, 0, 1, 1, 1, 1]>, <178, 15, 33, 18, 10, 0, 0, [0, 0, 0, 0, 1, 1, 1, 1]>, <179, 16, 34, 18, 10, 0, 0, [0, 0, 0, 0, 1, 1, 1, 1]>, <180, 17, 35, 18, 10, 0, 0, [0, 0, 0, 0, 1, 1, 1, 1]>, <181, 1, 17, 16, 11, 1, 0, [1, 1, 1, 1, 0, 0, 0, 0]>, <182, 2, 18, 16, 11, 1, 0, [1, 1, 1, 1, 0, 0, 0, 0]>, <183, 3, 19, 16, 11, 1, 0, [1, 1, 1, 1, 0, 0, 0, 0]>, <184, 4, 20, 16, 11, 1, 0, [1, 1, 1, 1, 0, 0, 0, 0]>, <185, 5, 21, 16, 11, 1, 0, [1, 1, 1, 1, 0, 0, 0, 0]>, <186, 6, 22, 16, 11, 1, 0, [1, 1, 1, 1, 0, 0, 0, 0]>, <187, 10, 26, 16, 11, 1, 0, [1, 1, 1, 1, 0, 0, 0, 0]>, <188, 11, 27, 16, 11, 1, 0, [1, 1, 1, 1, 0, 0, 0, 0]>, <189, 12, 28, 16, 11, 1, 0, [1, 1, 1, 1, 0, 0, 0, 0]>, <190, 13, 29, 16, 11, 1, 0, [1, 1, 1, 1, 0, 0, 0, 0]>, <191, 14, 30, 16, 11, 1, 0, [1, 1, 1, 1, 0, 0, 0, 0]>, <192, 15, 31, 16, 11, 1, 0, [1, 1, 1, 1, 0, 0, 0, 0]>, <193, 16, 32, 16, 11, 1, 0, [1, 1, 1, 1, 0, 0, 0, 0]>, <194, 17, 33, 16, 11, 1, 0, [1, 1, 1, 1, 0, 0, 0, 0]>, <195, 18, 34, 16, 11, 1, 0, [1, 1, 1, 1, 0, 0, 0, 0]>, <196, 19, 35, 16, 11, 1, 0, [1, 1, 1, 1, 0, 0, 0, 0]>, <197, 3, 17, 14, 12, 0, 1, [0, 0, 0, 1, 1, 1, 1, 0]>, <198, 4, 18, 14, 12, 0, 1, [0, 0, 0, 1, 1, 1, 1, 0]>, <199, 5, 19, 14, 12, 0, 1, [0, 0, 0, 1, 1, 1, 1, 0]>, <200, 6, 20, 14, 12, 0, 1, [0, 0, 0, 1, 1, 1, 1, 0]>, <201, 12, 26, 14, 12, 0, 1, [0, 0, 0, 1, 1, 1, 1, 0]>, <202, 13, 27, 14, 12, 0, 1, [0, 0, 0, 1, 1, 1, 1, 0]>, <203, 14, 28, 14, 12, 0, 1, [0, 0, 0, 1, 1, 1, 1, 0]>, <204, 15, 29, 14, 12, 0, 1, [0, 0, 0, 1, 1, 1, 1, 0]>, <205, 17, 31, 14, 12, 0, 1, [0, 0, 0, 1, 1, 1, 1, 0]>, <206, 18, 32, 14, 12, 0, 1, [0, 0, 0, 1, 1, 1, 1, 0]>, <207, 19, 33, 14, 12, 0, 1, [0, 0, 0, 1, 1, 1, 1, 0]>, <208, 20, 34, 14, 12, 0, 1, [0, 0, 0, 1, 1, 1, 1, 0]>, <209, 21, 35, 14, 12, 0, 1, [0, 0, 0, 1, 1, 1, 1, 0]>, <210, 4, 17, 13, 13, 0, 0, [1, 1, 1, 0, 0, 0, 0, 1]>, <211, 5, 18, 13, 13, 0, 0, [1, 1, 1, 0, 0, 0, 0, 1]>, <212, 6, 19, 13, 13, 0, 0, [1, 1, 1, 0, 0, 0, 0, 1]>, <213, 13, 26, 13, 13, 0, 0, [1, 1, 1, 0, 0, 0, 0, 1]>, <214, 14, 27, 13, 13, 0, 0, [1, 1, 1, 0, 0, 0, 0, 1]>, <215, 15, 28, 13, 13, 0, 0, [1, 1, 1, 0, 0, 0, 0, 1]>, <216, 18, 31, 13, 13, 0, 0, [1, 1, 1, 0, 0, 0, 0, 1]>, <217, 19, 32, 13, 13, 0, 0, [1, 1, 1, 0, 0, 0, 0, 1]>, <218, 20, 33, 13, 13, 0, 0, [1, 1, 1, 0, 0, 0, 0, 1]>, <219, 21, 34, 13, 13, 0, 0, [1, 1, 1, 0, 0, 0, 0, 1]>, <220, 22, 35, 13, 13, 0, 0, [1, 1, 1, 0, 0, 0, 0, 1]>, <221, 0, 18, 18, 14, 0, 1, [0, 0, 0, 0, 1, 1, 1, 1]>, <222, 1, 19, 18, 14, 0, 1, [0, 0, 0, 0, 1, 1, 1, 1]>, <223, 2, 20, 18, 14, 0, 1, [0, 0, 0, 0, 1, 1, 1, 1]>, <224, 3, 21, 18, 14, 0, 1, [0, 0, 0, 0, 1, 1, 1, 1]>, <225, 4, 22, 18, 14, 0, 1, [0, 0, 0, 0, 1, 1, 1, 1]>, <226, 5, 23, 18, 14, 0, 1, [0, 0, 0, 0, 1, 1, 1, 1]>, <227, 6, 24, 18, 14, 0, 1, [0, 0, 0, 0, 1, 1, 1, 1]>, <228, 8, 26, 18, 14, 0, 1, [0, 0, 0, 0, 1, 1, 1, 1]>, <229, 9, 27, 18, 14, 0, 1, [0, 0, 0, 0, 1, 1, 1, 1]>, <230, 10, 28, 18, 14, 0, 1, [0, 0, 0, 0, 1, 1, 1, 1]>, <231, 11, 29, 18, 14, 0, 1, [0, 0, 0, 0, 1, 1, 1, 1]>, <232, 12, 30, 18, 14, 0, 1, [0, 0, 0, 0, 1, 1, 1, 1]>, <233, 13, 31, 18, 14, 0, 1, [0, 0, 0, 0, 1, 1, 1, 1]>, <234, 14, 32, 18, 14, 0, 1, [0, 0, 0, 0, 1, 1, 1, 1]>, <235, 15, 33, 18, 14, 0, 1, [0, 0, 0, 0, 1, 1, 1, 1]>, <236, 16, 34, 18, 14, 0, 1, [0, 0, 0, 0, 1, 1, 1, 1]>, <237, 17, 35, 18, 14, 0, 1, [0, 0, 0, 0, 1, 1, 1, 1]>, <238, 4, 17, 13, 15, 0, 1, [1, 1, 0, 0, 0, 0, 1, 1]>, <239, 5, 18, 13, 15, 0, 1, [1, 1, 0, 0, 0, 0, 1, 1]>, <240, 6, 19, 13, 15, 0, 1, [1, 1, 0, 0, 0, 0, 1, 1]>, <241, 13, 26, 13, 15, 0, 1, [1, 1, 0, 0, 0, 0, 1, 1]>, <242, 14, 27, 13, 15, 0, 1, [1, 1, 0, 0, 0, 0, 1, 1]>, <243, 15, 28, 13, 15, 0, 1, [1, 1, 0, 0, 0, 0, 1, 1]>, <244, 18, 31, 13, 15, 0, 1, [1, 1, 0, 0, 0, 0, 1, 1]>, <245, 19, 32, 13, 15, 0, 1, [1, 1, 0, 0, 0, 0, 1, 1]>, <246, 20, 33, 13, 15, 0, 1, [1, 1, 0, 0, 0, 0, 1, 1]>, <247, 21, 34, 13, 15, 0, 1, [1, 1, 0, 0, 0, 0, 1, 1]>, <248, 22, 35, 13, 15, 0, 1, [1, 1, 0, 0, 0, 0, 1, 1]>, <249, 3, 17, 14, 16, 0, 0, [0, 0, 0, 0, 1, 1, 1, 1]>, <250, 4, 18, 14, 16, 0, 0, [0, 0, 0, 0, 1, 1, 1, 1]>, <251, 5, 19, 14, 16, 0, 0, [0, 0, 0, 0, 1, 1, 1, 1]>, <252, 6, 20, 14, 16, 0, 0, [0, 0, 0, 0, 1, 1, 1, 1]>, <253, 12, 26, 14, 16, 0, 0, [0, 0, 0, 0, 1, 1, 1, 1]>, <254, 13, 27, 14, 16, 0, 0, [0, 0, 0, 0, 1, 1, 1, 1]>, <255, 14, 28, 14, 16, 0, 0, [0, 0, 0, 0, 1, 1, 1, 1]>, <256, 15, 29, 14, 16, 0, 0, [0, 0, 0, 0, 1, 1, 1, 1]>, <257, 17, 31, 14, 16, 0, 0, [0, 0, 0, 0, 1, 1, 1, 1]>, <258, 18, 32, 14, 16, 0, 0, [0, 0, 0, 0, 1, 1, 1, 1]>, <259, 19, 33, 14, 16, 0, 0, [0, 0, 0, 0, 1, 1, 1, 1]>, <260, 20, 34, 14, 16, 0, 0, [0, 0, 0, 0, 1, 1, 1, 1]>, <261, 21, 35, 14, 16, 0, 0, [0, 0, 0, 0, 1, 1, 1, 1]>, <262, 3, 17, 14, 17, 0, 0, [1, 1, 1, 0, 0, 0, 0, 1]>, <263, 4, 18, 14, 17, 0, 0, [1, 1, 1, 0, 0, 0, 0, 1]>, <264, 5, 19, 14, 17, 0, 0, [1, 1, 1, 0, 0, 0, 0, 1]>, <265, 6, 20, 14, 17, 0, 0, [1, 1, 1, 0, 0, 0, 0, 1]>, <266, 12, 26, 14, 17, 0, 0, [1, 1, 1, 0, 0, 0, 0, 1]>, <267, 13, 27, 14, 17, 0, 0, [1, 1, 1, 0, 0, 0, 0, 1]>, <268, 14, 28, 14, 17, 0, 0, [1, 1, 1, 0, 0, 0, 0, 1]>, <269, 15, 29, 14, 17, 0, 0, [1, 1, 1, 0, 0, 0, 0, 1]>, <270, 17, 31, 14, 17, 0, 0, [1, 1, 1, 0, 0, 0, 0, 1]>, <271, 18, 32, 14, 17, 0, 0, [1, 1, 1, 0, 0, 0, 0, 1]>, <272, 19, 33, 14, 17, 0, 0, [1, 1, 1, 0, 0, 0, 0, 1]>, <273, 20, 34, 14, 17, 0, 0, [1, 1, 1, 0, 0, 0, 0, 1]>, <274, 21, 35, 14, 17, 0, 0, [1, 1, 1, 0, 0, 0, 0, 1]>, <275, 0, 18, 18, 18, 1, 0, [1, 0, 0, 0, 0, 1, 1, 1]>, <276, 1, 19, 18, 18, 1, 0, [1, 0, 0, 0, 0, 1, 1, 1]>, <277, 2, 20, 18, 18, 1, 0, [1, 0, 0, 0, 0, 1, 1, 1]>, <278, 3, 21, 18, 18, 1, 0, [1, 0, 0, 0, 0, 1, 1, 1]>, <279, 4, 22, 18, 18, 1, 0, [1, 0, 0, 0, 0, 1, 1, 1]>, <280, 5, 23, 18, 18, 1, 0, [1, 0, 0, 0, 0, 1, 1, 1]>, <281, 6, 24, 18, 18, 1, 0, [1, 0, 0, 0, 0, 1, 1, 1]>, <282, 8, 26, 18, 18, 1, 0, [1, 0, 0, 0, 0, 1, 1, 1]>, <283, 9, 27, 18, 18, 1, 0, [1, 0, 0, 0, 0, 1, 1, 1]>, <284, 10, 28, 18, 18, 1, 0, [1, 0, 0, 0, 0, 1, 1, 1]>, <285, 11, 29, 18, 18, 1, 0, [1, 0, 0, 0, 0, 1, 1, 1]>, <286, 12, 30, 18, 18, 1, 0, [1, 0, 0, 0, 0, 1, 1, 1]>, <287, 13, 31, 18, 18, 1, 0, [1, 0, 0, 0, 0, 1, 1, 1]>, <288, 14, 32, 18, 18, 1, 0, [1, 0, 0, 0, 0, 1, 1, 1]>, <289, 15, 33, 18, 18, 1, 0, [1, 0, 0, 0, 0, 1, 1, 1]>, <290, 16, 34, 18, 18, 1, 0, [1, 0, 0, 0, 0, 1, 1, 1]>, <291, 17, 35, 18, 18, 1, 0, [1, 0, 0, 0, 0, 1, 1, 1]>, <292, 0, 18, 18, 19, 0, 1, [1, 1, 1, 0, 0, 0, 0, 1]>, <293, 1, 19, 18, 19, 0, 1, [1, 1, 1, 0, 0, 0, 0, 1]>, <294, 2, 20, 18, 19, 0, 1, [1, 1, 1, 0, 0, 0, 0, 1]>, <295, 3, 21, 18, 19, 0, 1, [1, 1, 1, 0, 0, 0, 0, 1]>, <296, 4, 22, 18, 19, 0, 1, [1, 1, 1, 0, 0, 0, 0, 1]>, <297, 5, 23, 18, 19, 0, 1, [1, 1, 1, 0, 0, 0, 0, 1]>, <298, 6, 24, 18, 19, 0, 1, [1, 1, 1, 0, 0, 0, 0, 1]>, <299, 8, 26, 18, 19, 0, 1, [1, 1, 1, 0, 0, 0, 0, 1]>, <300, 9, 27, 18, 19, 0, 1, [1, 1, 1, 0, 0, 0, 0, 1]>, <301, 10, 28, 18, 19, 0, 1, [1, 1, 1, 0, 0, 0, 0, 1]>, <302, 11, 29, 18, 19, 0, 1, [1, 1, 1, 0, 0, 0, 0, 1]>, <303, 12, 30, 18, 19, 0, 1, [1, 1, 1, 0, 0, 0, 0, 1]>, <304, 13, 31, 18, 19, 0, 1, [1, 1, 1, 0, 0, 0, 0, 1]>, <305, 14, 32, 18, 19, 0, 1, [1, 1, 1, 0, 0, 0, 0, 1]>, <306, 15, 33, 18, 19, 0, 1, [1, 1, 1, 0, 0, 0, 0, 1]>, <307, 16, 34, 18, 19, 0, 1, [1, 1, 1, 0, 0, 0, 0, 1]>, <308, 17, 35, 18, 19, 0, 1, [1, 1, 1, 0, 0, 0, 0, 1]>, <309, 3, 17, 14, 20, 1, 0, [1, 1, 0, 0, 0, 0, 1, 1]>, <310, 4, 18, 14, 20, 1, 0, [1, 1, 0, 0, 0, 0, 1, 1]>, <311, 5, 19, 14, 20, 1, 0, [1, 1, 0, 0, 0, 0, 1, 1]>, <312, 6, 20, 14, 20, 1, 0, [1, 1, 0, 0, 0, 0, 1, 1]>, <313, 12, 26, 14, 20, 1, 0, [1, 1, 0, 0, 0, 0, 1, 1]>, <314, 13, 27, 14, 20, 1, 0, [1, 1, 0, 0, 0, 0, 1, 1]>, <315, 14, 28, 14, 20, 1, 0, [1, 1, 0, 0, 0, 0, 1, 1]>, <316, 15, 29, 14, 20, 1, 0, [1, 1, 0, 0, 0, 0, 1, 1]>, <317, 17, 31, 14, 20, 1, 0, [1, 1, 0, 0, 0, 0, 1, 1]>, <318, 18, 32, 14, 20, 1, 0, [1, 1, 0, 0, 0, 0, 1, 1]>, <319, 19, 33, 14, 20, 1, 0, [1, 1, 0, 0, 0, 0, 1, 1]>, <320, 20, 34, 14, 20, 1, 0, [1, 1, 0, 0, 0, 0, 1, 1]>, <321, 21, 35, 14, 20, 1, 0, [1, 1, 0, 0, 0, 0, 1, 1]>, <322, 4, 17, 13, 21, 0, 1, [0, 1, 1, 1, 1, 0, 0, 0]>, <323, 5, 18, 13, 21, 0, 1, [0, 1, 1, 1, 1, 0, 0, 0]>, <324, 6, 19, 13, 21, 0, 1, [0, 1, 1, 1, 1, 0, 0, 0]>, <325, 13, 26, 13, 21, 0, 1, [0, 1, 1, 1, 1, 0, 0, 0]>, <326, 14, 27, 13, 21, 0, 1, [0, 1, 1, 1, 1, 0, 0, 0]>, <327, 15, 28, 13, 21, 0, 1, [0, 1, 1, 1, 1, 0, 0, 0]>, <328, 18, 31, 13, 21, 0, 1, [0, 1, 1, 1, 1, 0, 0, 0]>, <329, 19, 32, 13, 21, 0, 1, [0, 1, 1, 1, 1, 0, 0, 0]>, <330, 20, 33, 13, 21, 0, 1, [0, 1, 1, 1, 1, 0, 0, 0]>, <331, 21, 34, 13, 21, 0, 1, [0, 1, 1, 1, 1, 0, 0, 0]>, <332, 22, 35, 13, 21, 0, 1, [0, 1, 1, 1, 1, 0, 0, 0]>};
